NPROCS=0
This instance is clustered!
Gurobi Optimizer version 9.0.0 build v9.0.0rc2 (linux64)
Optimize a model with 32 rows, 257 columns and 512 nonzeros
Model fingerprint: 0x93b791c8
Variable types: 1 continuous, 256 integer (256 binary)
Coefficient statistics:
  Matrix range     [1e+00, 1e+00]
  Objective range  [1e+00, 2e+02]
  Bounds range     [1e+00, 1e+00]
  RHS range        [1e+00, 1e+00]
Presolve removed 2 rows and 45 columns
Presolve time: 0.00s
Presolved: 30 rows, 212 columns, 422 nonzeros
Variable types: 1 continuous, 211 integer (211 binary)

Root relaxation: objective 4.537285e+02, 30 iterations, 0.00 seconds

    Nodes    |    Current Node    |     Objective Bounds      |     Work
 Expl Unexpl |  Obj  Depth IntInf | Incumbent    BestBd   Gap | It/Node Time

     0     0  461.62445    0   24          -  461.62445      -     -    0s
 done with super cut 0
     0     0  468.09099    0   27          -  468.09099      -     -    0s
 done with super cut 1
 done with super cut 2
H    0     0                     671.0572831  468.09099  30.2%     -    0s
 done with super cut 3
H    0     0                     582.1478758  468.09099  19.6%     -    0s
     0     0  468.09099    0   27  582.14788  468.09099  19.6%     -    0s
 done with super cut 4
     0     2  468.09099    0   27  582.14788  468.09099  19.6%     -    0s
 done with super cut 5
 done with super cut 6
 done with super cut 7
 done with super cut 8
 done with super cut 9
 done with super cut 10

Cutting planes:
  Gomory: 1
  Lazy constraints: 278

Explored 4985 nodes (27946 simplex iterations) in 2.80 seconds
Thread count was 12 (of 12 available processors)

Solution count 2: 582.148 671.057 

Optimal solution found (tolerance 1.00e-04)
Best objective 5.821478757668e+02, best bound 5.821478757668e+02, gap 0.0000%

User-callback calls 10580, time in user-callback 2.32 sec
/projects/academic/josewalt/caigao/RRARP_BD/BendersDecomp/ret/model_outs/n_14_m_6_algo_4.out
 =====>>>>> Solution is written to file in <../ret/model_outs> !!!
===>> All Done!
